cost: 1131.58
Route 1:           0    7   43   14   11    3    9    0
Route 2:           0   24   50   31    0
Route 3:           0   32   20   34   44    0
Route 4:           0   33   26   48    4   38   13   41   28    0
Route 5:           0   36   15   46   27    5   47    0
Route 6:           0   37    1   18    6   30    2    0
Route 7:           0   40   25   21   23    8   35   10   19    0
Route 8:           0   42   29   45   16   12    0
Route 9:           0   49   39   17   22    0
